(set-info :origin "SVCOMP13 benchmarks generated by Arie Gurfinkel")
(set-info :status unsat)
(set-logic HORN)
(declare-fun cp-rel-entry () Bool)
(declare-fun cp-rel-bb2.i.i16.i.i () Bool)
(declare-fun cp-rel-bb1.i.i (Real Real Real Real) Bool)
(assert |cp-rel-entry|)
(assert (forall ((?A Real) (?B Real) (?C Real) (?D Real) (?E Bool) )(let (($x36993 (and |cp-rel-entry| (<= ?D 1.0) (>= ?C 0.0) (<= ?C 0.0) (>= ?B 0.0) (<= ?B 0.0) (>= ?A 0.0) (<= ?A 0.0) (= ?E true) (>= ?D 1.0))))
(=> $x36993 (|cp-rel-bb1.i.i| ?A ?B ?C ?D))))
)
(assert (forall ((?A Real) (?B Real) (?C Real) (?D Real) (?E Real) (?F Real) (?G Real) (?H Real) (?I Bool) (?J Bool) (?K Bool) (?L Bool) (?M Bool) (?N Bool) (?O Real) (?P Real) (?Q Bool) (?R Bool) (?S Bool) (?T Bool) (?U Bool) (?V Bool) (?W Real) (?X Real) (?Y Bool) (?Z Bool) (?A1 Bool) (?B1 Bool) (?C1 Bool) (?D1 Bool) (?E1 Bool) (?F1 Bool) (?G1 Bool) (?H1 Bool) (?I1 Bool) (?J1 Real) (?K1 Real) (?L1 Bool) (?M1 Bool) (?N1 Real) (?O1 Bool) (?P1 Bool) (?Q1 Bool) (?R1 Bool) (?S1 Real) (?T1 Bool) (?U1 Real) (?V1 Real) (?W1 Bool) (?X1 Bool) (?Y1 Real) (?Z1 Bool) (?A2 Bool) )(let (($x847919 (|cp-rel-bb1.i.i| ?E ?F ?G ?H)))
(let (($x906839 (or (not ?I) (and ?J ?K (not ?L)))))
(let (($x347983 (or (not ?I) ?K)))
(let (($x523870 (not ?M)))
(let (($x417221 (or $x523870 (and ?I ?N (<= ?O ?P) (>= ?O ?P)) (and ?J ?Q ?L (<= ?O ?D) (>= ?O ?D)))))
(let (($x689057 (or $x523870 (and ?N (not ?Q)) (and ?Q (not ?N)))))
(let (($x855974 (or (not ?R) (and ?M ?S (not ?T)))))
(let (($x327425 (or (not ?R) ?S)))
(let (($x358879 (not ?U)))
(let (($x799911 (or $x358879 (and ?R ?V (<= ?W ?X) (>= ?W ?X)) (and ?M ?Y ?T (<= ?W ?C) (>= ?W ?C)))))
(let (($x392254 (or $x358879 (and ?V (not ?Y)) (and ?Y (not ?V)))))
(let (($x174579 (or (not ?Z) (and ?U ?A1 ?B1))))
(let (($x94960 (or (not ?Z) ?A1)))
(let (($x538979 (or (not ?C1) (and ?U ?D1 (not ?B1)))))
(let (($x231755 (or (not ?C1) ?D1)))
(let (($x700936 (or (not ?E1) (and ?Z ?F1 (not ?G1)))))
(let (($x359671 (or (not ?E1) ?F1)))
(let (($x114708 (and ?C1 ?M1 (<= ?J1 ?N1) (>= ?J1 ?N1) (<= ?K1 ?A) (>= ?K1 ?A))))
(let (($x878445 (>= ?J1 ?O)))
(let (($x387570 (<= ?J1 ?O)))
(let (($x164682 (not ?H1)))
(let (($x354980 (or $x164682 (and ?E1 ?I1 $x387570 $x878445 (<= ?K1 ?A) (>= ?K1 ?A)) (and ?Z ?L1 ?G1 $x387570 $x878445 (<= ?K1 1.0) (>= ?K1 1.0)) $x114708)))
(let (($x196850 (or $x164682 (and ?I1 (not ?L1) (not ?M1)) (and ?L1 (not ?I1) (not ?M1)) (and ?M1 (not ?I1) (not ?L1)))))
(let (($x901674 (or (not ?O1) (and ?H1 ?P1 (not ?Q1)))))
(let (($x391554 (or (not ?O1) ?P1)))
(let (($x334275 (and ?H1 ?Q1 (<= ?E ?K1) (>= ?E ?K1) (<= ?F 0.0) (>= ?F 0.0) (<= ?G ?W) (>= ?G ?W) (<= ?H ?J1) (>= ?H ?J1))))
(let (($x700742 (and ?O1 ?R1 (<= ?E ?K1) (>= ?E ?K1) (<= ?F 1.0) (>= ?F 1.0) (<= ?G ?W) (>= ?G ?W) (<= ?H ?J1) (>= ?H ?J1))))
(let (($x89463 (= ?L (= ?S1 0.0))))
(let (($x188672 (= ?U1 (ite ?T1 1.0 0.0))))
(let (($x629912 (= ?T (= ?V1 0.0))))
(let (($x315905 (= ?X (ite ?W1 1.0 0.0))))
(let (($x166831 (= ?G1 (not (<= ?O 1.0)))))
(let (($x463487 (= ?X1 (not (<= ?O 0.0)))))
(let (($x476757 (= ?Y1 (+ (~ 1.0) ?O))))
(let (($x264399 (= ?N1 (ite ?X1 ?Y1 ?O))))
(let (($x619821 (= ?Z1 (= ?W 0.0))))
(let (($x441351 (= ?A2 (= ?K1 0.0))))
(let (($x347904 (= ?Q1 (or ?A2 ?Z1))))
(let (($x80486 (and (|cp-rel-bb1.i.i| ?A ?B ?C ?D) $x347904 $x441351 $x619821 $x264399 $x476757 $x463487 $x166831 (= ?B1 (= ?A 0.0)) $x315905 (= ?W1 (= ?C 0.0)) $x629912 (= ?P (+ ?U1 ?D)) $x188672 (= ?T1 (not (<= 2.0 ?D))) $x89463 (or $x700742 $x334275) $x391554 $x901674 $x196850 $x354980 $x359671 $x700936 $x231755 $x538979 $x94960 $x174579 $x392254 $x799911 $x327425 $x855974 $x689057 $x417221 $x347983 $x906839 (= ?R1 (= ?B 0.0)))))
(=> $x80486 $x847919)))))))))))))))))))))))))))))))))))))))))
)
(assert (forall ((?A Real) (?B Real) (?C Real) (?D Real) (?E Bool) (?F Bool) (?G Bool) (?H Bool) (?I Bool) (?J Bool) (?K Real) (?L Real) (?M Bool) (?N Bool) (?O Bool) (?P Bool) (?Q Bool) (?R Bool) (?S Real) (?T Real) (?U Bool) (?V Bool) (?W Bool) (?X Bool) (?Y Bool) (?Z Bool) (?A1 Bool) (?B1 Bool) (?C1 Bool) (?D1 Bool) (?E1 Bool) (?F1 Real) (?G1 Real) (?H1 Bool) (?I1 Bool) (?J1 Real) (?K1 Bool) (?L1 Bool) (?M1 Bool) (?N1 Bool) (?O1 Real) (?P1 Bool) (?Q1 Real) (?R1 Real) (?S1 Bool) (?T1 Bool) (?U1 Real) (?V1 Bool) (?W1 Bool) )(let (($x906839 (or (not ?E) (and ?F ?G (not ?H)))))
(let (($x347983 (or (not ?E) ?G)))
(let (($x523870 (not ?I)))
(let (($x506827 (or $x523870 (and ?E ?J (<= ?K ?L) (>= ?K ?L)) (and ?F ?M ?H (<= ?K ?D) (>= ?K ?D)))))
(let (($x689057 (or $x523870 (and ?J (not ?M)) (and ?M (not ?J)))))
(let (($x855974 (or (not ?N) (and ?I ?O (not ?P)))))
(let (($x327425 (or (not ?N) ?O)))
(let (($x358879 (not ?Q)))
(let (($x100895 (or $x358879 (and ?N ?R (<= ?S ?T) (>= ?S ?T)) (and ?I ?U ?P (<= ?S ?C) (>= ?S ?C)))))
(let (($x392254 (or $x358879 (and ?R (not ?U)) (and ?U (not ?R)))))
(let (($x174579 (or (not ?V) (and ?Q ?W ?X))))
(let (($x94960 (or (not ?V) ?W)))
(let (($x538979 (or (not ?Y) (and ?Q ?Z (not ?X)))))
(let (($x231755 (or (not ?Y) ?Z)))
(let (($x700936 (or (not ?A1) (and ?V ?B1 (not ?C1)))))
(let (($x359671 (or (not ?A1) ?B1)))
(let (($x64686 (and ?Y ?I1 (<= ?F1 ?J1) (>= ?F1 ?J1) (<= ?G1 ?A) (>= ?G1 ?A))))
(let (($x878445 (>= ?F1 ?K)))
(let (($x387570 (<= ?F1 ?K)))
(let (($x164682 (not ?D1)))
(let (($x206450 (or $x164682 (and ?A1 ?E1 $x387570 $x878445 (<= ?G1 ?A) (>= ?G1 ?A)) (and ?V ?H1 ?C1 $x387570 $x878445 (<= ?G1 1.0) (>= ?G1 1.0)) $x64686)))
(let (($x196850 (or $x164682 (and ?E1 (not ?H1) (not ?I1)) (and ?H1 (not ?E1) (not ?I1)) (and ?I1 (not ?E1) (not ?H1)))))
(let (($x901674 (or (not ?K1) (and ?D1 ?L1 (not ?M1)))))
(let (($x391554 (or (not ?K1) ?L1)))
(let (($x89463 (= ?H (= ?O1 0.0))))
(let (($x188672 (= ?Q1 (ite ?P1 1.0 0.0))))
(let (($x629912 (= ?P (= ?R1 0.0))))
(let (($x315905 (= ?T (ite ?S1 1.0 0.0))))
(let (($x166831 (= ?C1 (not (<= ?K 1.0)))))
(let (($x463487 (= ?T1 (not (<= ?K 0.0)))))
(let (($x476757 (= ?U1 (+ (~ 1.0) ?K))))
(let (($x264399 (= ?J1 (ite ?T1 ?U1 ?K))))
(let (($x619821 (= ?V1 (= ?S 0.0))))
(let (($x441351 (= ?W1 (= ?G1 0.0))))
(let (($x347904 (= ?M1 (or ?W1 ?V1))))
(let (($x847919 (|cp-rel-bb1.i.i| ?A ?B ?C ?D)))
(let (($x202281 (and $x847919 $x347904 $x441351 $x619821 $x264399 $x476757 $x463487 $x166831 (= ?X (= ?A 0.0)) $x315905 (= ?S1 (= ?C 0.0)) $x629912 (= ?L (+ ?Q1 ?D)) $x188672 (= ?P1 (not (<= 2.0 ?D))) $x89463 (not (= ?N1 true)) (= ?K1 true) $x391554 $x901674 $x196850 $x206450 $x359671 $x700936 $x231755 $x538979 $x94960 $x174579 $x392254 $x100895 $x327425 $x855974 $x689057 $x506827 $x347983 $x906839 (= ?N1 (= ?B 0.0)))))
(=> $x202281 |cp-rel-bb2.i.i16.i.i|)))))))))))))))))))))))))))))))))))))))
)
(assert (not cp-rel-bb2.i.i16.i.i))
(check-sat)
